; SPDX-License-Identifier: MPL-2.0
; Copyright (c) 2026 The RIINA Authors.
; Auto-generated from 02_FORMAL/coq/domains/NetworkSecurity.v (26 validations)
; Generated by scripts/generate-full-stack.py
;
; Translation Validation for NetworkSecurity
; Layer 9: Verifies compiler backend preserves formal semantics.
; Each assertion checks source IR ≡ target code for a proven property.

(set-logic QF_LIA)
(set-option :produce-models true)

; IR node representation
(declare-sort IRNode 0)
(declare-sort TargetNode 0)

; tls_mitm_defense_enabled: source semantics (matches Coq)
(declare-fun source_tls_mitm_defense_enabled () Bool)
(declare-fun target_tls_mitm_defense_enabled () Bool)
(assert (= source_tls_mitm_defense_enabled target_tls_mitm_defense_enabled))

; arp_spoofing_defense_enabled: source semantics (matches Coq)
(declare-fun source_arp_spoofing_defense_enabled () Bool)
(declare-fun target_arp_spoofing_defense_enabled () Bool)
(assert (= source_arp_spoofing_defense_enabled target_arp_spoofing_defense_enabled))

; dns_poisoning_defense_enabled: source semantics (matches Coq)
(declare-fun source_dns_poisoning_defense_enabled () Bool)
(declare-fun target_dns_poisoning_defense_enabled () Bool)
(assert (= source_dns_poisoning_defense_enabled target_dns_poisoning_defense_enabled))

; bgp_hijacking_defense_enabled: source semantics (matches Coq)
(declare-fun source_bgp_hijacking_defense_enabled () Bool)
(declare-fun target_bgp_hijacking_defense_enabled () Bool)
(assert (= source_bgp_hijacking_defense_enabled target_bgp_hijacking_defense_enabled))

; ssl_stripping_defense_enabled: source semantics (matches Coq)
(declare-fun source_ssl_stripping_defense_enabled () Bool)
(declare-fun target_ssl_stripping_defense_enabled () Bool)
(assert (= source_ssl_stripping_defense_enabled target_ssl_stripping_defense_enabled))

; packet_sniffing_defense_enabled: source semantics (matches Coq)
(declare-fun source_packet_sniffing_defense_enabled () Bool)
(declare-fun target_packet_sniffing_defense_enabled () Bool)
(assert (= source_packet_sniffing_defense_enabled target_packet_sniffing_defense_enabled))

; packet_injection_defense_enabled: source semantics (matches Coq)
(declare-fun source_packet_injection_defense_enabled () Bool)
(declare-fun target_packet_injection_defense_enabled () Bool)
(assert (= source_packet_injection_defense_enabled target_packet_injection_defense_enabled))

; replay_attack_defense_enabled: source semantics (matches Coq)
(declare-fun source_replay_attack_defense_enabled () Bool)
(declare-fun target_replay_attack_defense_enabled () Bool)
(assert (= source_replay_attack_defense_enabled target_replay_attack_defense_enabled))

; volumetric_dos_defense_enabled: source semantics (matches Coq)
(declare-fun source_volumetric_dos_defense_enabled () Bool)
(declare-fun target_volumetric_dos_defense_enabled () Bool)
(assert (= source_volumetric_dos_defense_enabled target_volumetric_dos_defense_enabled))

; protocol_dos_defense_enabled: source semantics (matches Coq)
(declare-fun source_protocol_dos_defense_enabled () Bool)
(declare-fun target_protocol_dos_defense_enabled () Bool)
(assert (= source_protocol_dos_defense_enabled target_protocol_dos_defense_enabled))

; application_dos_defense_enabled: source semantics (matches Coq)
(declare-fun source_application_dos_defense_enabled () Bool)
(declare-fun target_application_dos_defense_enabled () Bool)
(assert (= source_application_dos_defense_enabled target_application_dos_defense_enabled))

; amplification_dos_defense_enabled: source semantics (matches Coq)
(declare-fun source_amplification_dos_defense_enabled () Bool)
(declare-fun target_amplification_dos_defense_enabled () Bool)
(assert (= source_amplification_dos_defense_enabled target_amplification_dos_defense_enabled))

; syn_flood_defense_enabled: source semantics (matches Coq)
(declare-fun source_syn_flood_defense_enabled () Bool)
(declare-fun target_syn_flood_defense_enabled () Bool)
(assert (= source_syn_flood_defense_enabled target_syn_flood_defense_enabled))

; udp_flood_defense_enabled: source semantics (matches Coq)
(declare-fun source_udp_flood_defense_enabled () Bool)
(declare-fun target_udp_flood_defense_enabled () Bool)
(assert (= source_udp_flood_defense_enabled target_udp_flood_defense_enabled))

; icmp_flood_defense_enabled: source semantics (matches Coq)
(declare-fun source_icmp_flood_defense_enabled () Bool)
(declare-fun target_icmp_flood_defense_enabled () Bool)
(assert (= source_icmp_flood_defense_enabled target_icmp_flood_defense_enabled))

; slowloris_defense_enabled: source semantics (matches Coq)
(declare-fun source_slowloris_defense_enabled () Bool)
(declare-fun target_slowloris_defense_enabled () Bool)
(assert (= source_slowloris_defense_enabled target_slowloris_defense_enabled))

; dns_amplification_defense_enabled: source semantics (matches Coq)
(declare-fun source_dns_amplification_defense_enabled () Bool)
(declare-fun target_dns_amplification_defense_enabled () Bool)
(assert (= source_dns_amplification_defense_enabled target_dns_amplification_defense_enabled))

; ntp_amplification_defense_enabled: source semantics (matches Coq)
(declare-fun source_ntp_amplification_defense_enabled () Bool)
(declare-fun target_ntp_amplification_defense_enabled () Bool)
(assert (= source_ntp_amplification_defense_enabled target_ntp_amplification_defense_enabled))

; ip_spoofing_defense_enabled: source semantics (matches Coq)
(declare-fun source_ip_spoofing_defense_enabled () Bool)
(declare-fun target_ip_spoofing_defense_enabled () Bool)
(assert (= source_ip_spoofing_defense_enabled target_ip_spoofing_defense_enabled))

; mac_spoofing_defense_enabled: source semantics (matches Coq)
(declare-fun source_mac_spoofing_defense_enabled () Bool)
(declare-fun target_mac_spoofing_defense_enabled () Bool)
(assert (= source_mac_spoofing_defense_enabled target_mac_spoofing_defense_enabled))

; vlan_hopping_defense_enabled: source semantics (matches Coq)
(declare-fun source_vlan_hopping_defense_enabled () Bool)
(declare-fun target_vlan_hopping_defense_enabled () Bool)
(assert (= source_vlan_hopping_defense_enabled target_vlan_hopping_defense_enabled))

; rogue_dhcp_defense_enabled: source semantics (matches Coq)
(declare-fun source_rogue_dhcp_defense_enabled () Bool)
(declare-fun target_rogue_dhcp_defense_enabled () Bool)
(assert (= source_rogue_dhcp_defense_enabled target_rogue_dhcp_defense_enabled))

; ntp_attack_defense_enabled: source semantics (matches Coq)
(declare-fun source_ntp_attack_defense_enabled () Bool)
(declare-fun target_ntp_attack_defense_enabled () Bool)
(assert (= source_ntp_attack_defense_enabled target_ntp_attack_defense_enabled))

; tcp_reset_defense_enabled: source semantics (matches Coq)
(declare-fun source_tcp_reset_defense_enabled () Bool)
(declare-fun target_tcp_reset_defense_enabled () Bool)
(assert (= source_tcp_reset_defense_enabled target_tcp_reset_defense_enabled))

; traffic_analysis_defense_enabled: source semantics (matches Coq)
(declare-fun source_traffic_analysis_defense_enabled () Bool)
(declare-fun target_traffic_analysis_defense_enabled () Bool)
(assert (= source_traffic_analysis_defense_enabled target_traffic_analysis_defense_enabled))

; all_defenses_enabled: source semantics (matches Coq)
(declare-fun source_all_defenses_enabled () Bool)
(declare-fun target_all_defenses_enabled () Bool)
(assert (= source_all_defenses_enabled target_all_defenses_enabled))

; net_001_man_in_the_middle_mitigated: translation preserves property (matches Coq: Theorem)
(declare-fun source_net_001_man_in_the_middle_mitigated () Bool)
(declare-fun target_net_001_man_in_the_middle_mitigated () Bool)
(assert (= source_net_001_man_in_the_middle_mitigated target_net_001_man_in_the_middle_mitigated))

; net_002_arp_spoofing_mitigated: translation preserves property (matches Coq: Theorem)
(declare-fun source_net_002_arp_spoofing_mitigated () Bool)
(declare-fun target_net_002_arp_spoofing_mitigated () Bool)
(assert (= source_net_002_arp_spoofing_mitigated target_net_002_arp_spoofing_mitigated))

; net_003_dns_poisoning_mitigated: translation preserves property (matches Coq: Theorem)
(declare-fun source_net_003_dns_poisoning_mitigated () Bool)
(declare-fun target_net_003_dns_poisoning_mitigated () Bool)
(assert (= source_net_003_dns_poisoning_mitigated target_net_003_dns_poisoning_mitigated))

; net_004_bgp_hijacking_mitigated: translation preserves property (matches Coq: Theorem)
(declare-fun source_net_004_bgp_hijacking_mitigated () Bool)
(declare-fun target_net_004_bgp_hijacking_mitigated () Bool)
(assert (= source_net_004_bgp_hijacking_mitigated target_net_004_bgp_hijacking_mitigated))

; net_005_ssl_stripping_mitigated: translation preserves property (matches Coq: Theorem)
(declare-fun source_net_005_ssl_stripping_mitigated () Bool)
(declare-fun target_net_005_ssl_stripping_mitigated () Bool)
(assert (= source_net_005_ssl_stripping_mitigated target_net_005_ssl_stripping_mitigated))

; net_006_packet_sniffing_mitigated: translation preserves property (matches Coq: Theorem)
(declare-fun source_net_006_packet_sniffing_mitigated () Bool)
(declare-fun target_net_006_packet_sniffing_mitigated () Bool)
(assert (= source_net_006_packet_sniffing_mitigated target_net_006_packet_sniffing_mitigated))

; net_007_packet_injection_mitigated: translation preserves property (matches Coq: Theorem)
(declare-fun source_net_007_packet_injection_mitigated () Bool)
(declare-fun target_net_007_packet_injection_mitigated () Bool)
(assert (= source_net_007_packet_injection_mitigated target_net_007_packet_injection_mitigated))

; net_008_replay_attack_mitigated: translation preserves property (matches Coq: Theorem)
(declare-fun source_net_008_replay_attack_mitigated () Bool)
(declare-fun target_net_008_replay_attack_mitigated () Bool)
(assert (= source_net_008_replay_attack_mitigated target_net_008_replay_attack_mitigated))

; net_009_volumetric_dos_mitigated: translation preserves property (matches Coq: Theorem)
(declare-fun source_net_009_volumetric_dos_mitigated () Bool)
(declare-fun target_net_009_volumetric_dos_mitigated () Bool)
(assert (= source_net_009_volumetric_dos_mitigated target_net_009_volumetric_dos_mitigated))

; net_010_protocol_dos_mitigated: translation preserves property (matches Coq: Theorem)
(declare-fun source_net_010_protocol_dos_mitigated () Bool)
(declare-fun target_net_010_protocol_dos_mitigated () Bool)
(assert (= source_net_010_protocol_dos_mitigated target_net_010_protocol_dos_mitigated))

; net_011_application_dos_mitigated: translation preserves property (matches Coq: Theorem)
(declare-fun source_net_011_application_dos_mitigated () Bool)
(declare-fun target_net_011_application_dos_mitigated () Bool)
(assert (= source_net_011_application_dos_mitigated target_net_011_application_dos_mitigated))

; net_012_amplification_dos_mitigated: translation preserves property (matches Coq: Theorem)
(declare-fun source_net_012_amplification_dos_mitigated () Bool)
(declare-fun target_net_012_amplification_dos_mitigated () Bool)
(assert (= source_net_012_amplification_dos_mitigated target_net_012_amplification_dos_mitigated))

; net_013_syn_flood_mitigated: translation preserves property (matches Coq: Theorem)
(declare-fun source_net_013_syn_flood_mitigated () Bool)
(declare-fun target_net_013_syn_flood_mitigated () Bool)
(assert (= source_net_013_syn_flood_mitigated target_net_013_syn_flood_mitigated))

; net_014_udp_flood_mitigated: translation preserves property (matches Coq: Theorem)
(declare-fun source_net_014_udp_flood_mitigated () Bool)
(declare-fun target_net_014_udp_flood_mitigated () Bool)
(assert (= source_net_014_udp_flood_mitigated target_net_014_udp_flood_mitigated))

; net_015_icmp_flood_mitigated: translation preserves property (matches Coq: Theorem)
(declare-fun source_net_015_icmp_flood_mitigated () Bool)
(declare-fun target_net_015_icmp_flood_mitigated () Bool)
(assert (= source_net_015_icmp_flood_mitigated target_net_015_icmp_flood_mitigated))

; net_016_slowloris_mitigated: translation preserves property (matches Coq: Theorem)
(declare-fun source_net_016_slowloris_mitigated () Bool)
(declare-fun target_net_016_slowloris_mitigated () Bool)
(assert (= source_net_016_slowloris_mitigated target_net_016_slowloris_mitigated))

; net_017_dns_amplification_mitigated: translation preserves property (matches Coq: Theorem)
(declare-fun source_net_017_dns_amplification_mitigated () Bool)
(declare-fun target_net_017_dns_amplification_mitigated () Bool)
(assert (= source_net_017_dns_amplification_mitigated target_net_017_dns_amplification_mitigated))

; net_018_ntp_amplification_mitigated: translation preserves property (matches Coq: Theorem)
(declare-fun source_net_018_ntp_amplification_mitigated () Bool)
(declare-fun target_net_018_ntp_amplification_mitigated () Bool)
(assert (= source_net_018_ntp_amplification_mitigated target_net_018_ntp_amplification_mitigated))

; net_019_ip_spoofing_mitigated: translation preserves property (matches Coq: Theorem)
(declare-fun source_net_019_ip_spoofing_mitigated () Bool)
(declare-fun target_net_019_ip_spoofing_mitigated () Bool)
(assert (= source_net_019_ip_spoofing_mitigated target_net_019_ip_spoofing_mitigated))

; net_020_mac_spoofing_mitigated: translation preserves property (matches Coq: Theorem)
(declare-fun source_net_020_mac_spoofing_mitigated () Bool)
(declare-fun target_net_020_mac_spoofing_mitigated () Bool)
(assert (= source_net_020_mac_spoofing_mitigated target_net_020_mac_spoofing_mitigated))

; net_021_vlan_hopping_mitigated: translation preserves property (matches Coq: Theorem)
(declare-fun source_net_021_vlan_hopping_mitigated () Bool)
(declare-fun target_net_021_vlan_hopping_mitigated () Bool)
(assert (= source_net_021_vlan_hopping_mitigated target_net_021_vlan_hopping_mitigated))

; net_022_rogue_dhcp_mitigated: translation preserves property (matches Coq: Theorem)
(declare-fun source_net_022_rogue_dhcp_mitigated () Bool)
(declare-fun target_net_022_rogue_dhcp_mitigated () Bool)
(assert (= source_net_022_rogue_dhcp_mitigated target_net_022_rogue_dhcp_mitigated))

; net_023_ntp_attack_mitigated: translation preserves property (matches Coq: Theorem)
(declare-fun source_net_023_ntp_attack_mitigated () Bool)
(declare-fun target_net_023_ntp_attack_mitigated () Bool)
(assert (= source_net_023_ntp_attack_mitigated target_net_023_ntp_attack_mitigated))

; net_024_tcp_reset_mitigated: translation preserves property (matches Coq: Theorem)
(declare-fun source_net_024_tcp_reset_mitigated () Bool)
(declare-fun target_net_024_tcp_reset_mitigated () Bool)
(assert (= source_net_024_tcp_reset_mitigated target_net_024_tcp_reset_mitigated))

; net_025_traffic_analysis_mitigated: translation preserves property (matches Coq: Theorem)
(declare-fun source_net_025_traffic_analysis_mitigated () Bool)
(declare-fun target_net_025_traffic_analysis_mitigated () Bool)
(assert (= source_net_025_traffic_analysis_mitigated target_net_025_traffic_analysis_mitigated))

; network_security_comprehensive: translation preserves property (matches Coq: Theorem)
(declare-fun source_network_security_comprehensive () Bool)
(declare-fun target_network_security_comprehensive () Bool)
(assert (= source_network_security_comprehensive target_network_security_comprehensive))

; Verify all translation validations are satisfiable
(check-sat)
(exit)
